NAME : pairopt
TYPE : ACVRP
DIMENSION : 5
EDGE_WEIGHT_TYPE : EXPLICIT
EDGE_WEIGHT_FORMAT : FULL_MATRIX
CAPACITY : 524
VEHICLES : 2
EDGE_WEIGHT_SECTION
100000 -100000 -100000 100000 100000 
100000 100000 1000000 523 565 
100000 1000000 100000 -389 927 
0 0 0 100000 1032 
0 0 0 1032 100000 
DEMAND_SECTION
1 0
2 0
3 0
4 625
5 73
DEPOT_SECTION
1
EOF